units metal
atom_style atomic
boundary p p p
# Standard hcp: a=2.95, c/a=sqrt(8/3)=1.633
lattice hcp 2.95
region box block 0 4 0 4 0 4 units lattice
create_box 1 box
create_atoms 1 box
mass 1 47.867
pair_style eam/alloy
pair_coeff * * Zope-Ti-Al-2003.eam.alloy Ti
neighbor 2.0 bin
neigh_modify delay 5 every 1
minimize 1e-10 1e-10 10000 100000
variable E equal pe/count(all)
print ""
print "Ti hcp: E = ${E} eV/atom"
print "Expected: ~-4.87 eV/atom"
