units metal
atom_style atomic
boundary p p p

# TiAl L1_0: 2x2x2 supercell = 32 atoms
lattice custom 3.998 a1 1.0 0.0 0.0 a2 0.0 1.0 0.0 a3 0.0 0.0 4.187 &
  basis 0.0 0.0 0.0 basis 0.5 0.0 0.5 basis 0.0 0.5 0.5 basis 0.5 0.5 0.0

region box block 0 2 0 2 0 2 units lattice
create_box 2 box
create_atoms 1 box basis 1 2 basis 2 1 basis 3 1 basis 4 2

mass 1 47.867
mass 2 26.982

pair_style eam/alloy
pair_coeff * * Zope-Ti-Al-2003.eam.alloy Ti Al

neighbor 2.0 bin
neigh_modify delay 5 every 1

variable natoms equal count(all)
group gTi type 1
group gAl type 2
variable nTi equal count(gTi)
variable nAl equal count(gAl)

print ""
print "Total atoms = ${natoms}"
print "Ti (type 1) = ${nTi}, Al (type 2) = ${nAl}"

minimize 1e-10 1e-10 10000 100000

variable Etot equal pe
variable Eper equal pe/count(all)
print ""
print "TiAl L1_0 energy = ${Etot} eV total"
print "Energy per atom = ${Eper} eV"
print "Expected: -4.509 eV/atom"
print "Al fcc reference: -3.36 eV/atom"
print "Ti hcp reference: should be ~-4.85 eV/atom"
