units metal
atom_style atomic
boundary p p p
lattice fcc 4.05
region box block 0 4 0 4 0 4 units lattice
create_box 1 box
create_atoms 1 box
mass 1 26.982
pair_style eam/alloy
pair_coeff * * Zope-Ti-Al-2003.eam.alloy Al
neighbor 2.0 bin
neigh_modify delay 5 every 1
minimize 1e-10 1e-10 10000 100000
variable E equal pe/count(all)
print ""
print "Al fcc: E = ${E} eV/atom"
print "Expected: -3.36 eV/atom"
